% File represents an instance of a Composite Structure problem to be solved by a CP framework
% Created on 2025-03-25 14:05:16.715
T = 60;
n = 36;
m = 60;
edges = [(2, 1),
(8, 7),
(13, 14),
(20, 19),
(26, 25),
(31, 32),
(3, 2),
(8, 9),
(15, 14),
(20, 21),
(27, 26),
(33, 32),
(3, 4),
(9, 10),
(16, 15),
(22, 21),
(28, 27),
(34, 33),
(5, 4),
(10, 11),
(16, 17),
(23, 22),
(28, 29),
(34, 35),
(6, 5),
(11, 12),
(17, 18),
(24, 23),
(30, 29),
(35, 36),
(7, 1),
(7, 13),
(19, 13),
(25, 19),
(31, 25),
(8, 2),
(8, 14),
(20, 14),
(26, 20),
(32, 26),
(9, 3),
(15, 9),
(21, 15),
(27, 21),
(27, 33),
(10, 4),
(16, 10),
(16, 22),
(28, 22),
(34, 28),
(11, 5),
(17, 11),
(17, 23),
(29, 23),
(35, 29),
(12, 6),
(18, 12),
(24, 18),
(24, 30),
(36, 30)];
counts = [|2, 3, 15, 16,
|4, 3, 15, 17,
|4, 4, 18, 17,
|4, 3, 11, 17,
|4, 4, 11, 17,
|4, 4, 12, 17,
|3, 4, 19, 19,
|4, 4, 20, 21,
|4, 4, 18, 20,
|4, 4, 17, 20,
|4, 4, 16, 20,
|4, 4, 16, 17,
|2, 4, 17, 19,
|2, 4, 14, 19,
|4, 5, 18, 20,
|7, 7, 19, 22,
|7, 6, 19, 22,
|7, 6, 16, 21,
|4, 6, 17, 19,
|4, 6, 18, 21,
|4, 5, 18, 21,
|4, 5, 19, 21,
|4, 5, 19, 22,
|8, 6, 20, 26,
|4, 7, 18, 20,
|4, 7, 18, 21,
|4, 8, 18, 23,
|4, 9, 19, 23,
|4, 6, 19, 22,
|4, 6, 20, 22,
|4, 9, 18, 28,
|4, 7, 18, 22,
|4, 7, 18, 23,
|4, 9, 22, 25,
|4, 9, 22, 24,
|4, 9, 21, 24|];
